
(set-logic ALL) 

(declare-datatype MyList ((Nil) (Cons (head Real) (tail MyList)) )) 
(declare-fun l0 () MyList) 
(declare-fun l1 () MyList) 
(declare-fun l2 () MyList) 
(declare-fun l3 () MyList) 
(declare-fun i0 () Real) 
(declare-fun i1 () Real) 
(assert (and (is-Nil l1) (= l0 l0)) )
(assert (not (= l2 Nil)) )
(assert (or (is-Cons Nil) (= l1 Nil) (is-Nil Nil)) )
(assert (is-Nil l3) )
(assert (and (= l2 Nil) (is-Nil Nil) (is-Cons Nil)) )
(assert (or (= l1 Nil) (= l3 Nil) (= l0 Nil)) )
(assert (is-Cons l3) )
(assert (not (= l1 Nil)) )
(check-sat)
